p cnf 526 2100
c p weight 214 0 0
c p weight -214 1 0
c p weight 215 1.0 0
c p weight -215 1 0
210 -209 207 0
210 -209 208 0
-210 209 207 0
-210 209 208 0
210 209 -207 -208 0
-210 -209 -207 -208 0
211 207 -208 0
211 -207 208 0
-211 207 208 0
-211 -207 -208 0
212 213 -210 0
212 -210 211 0
-212 213 210 0
-212 210 211 0
212 -210 -207 0
-212 210 -207 0
212 -213 210 207 -211 0
-212 -213 -210 207 -211 0
213 -207 211 0
-213 207 211 0
-214 211 0
213 -214 -207 0
-213 -214 207 0
213 214 207 -211 0
-213 214 -207 -211 0
-215 211 0
213 -215 207 0
-213 -215 -207 0
213 215 -207 -211 0
-213 215 207 -211 0
216 -212 213 0
216 -212 211 0
-216 212 213 0
-216 212 211 0
216 212 -213 -211 0
-216 -212 -213 -211 0
217 213 -211 0
217 -213 211 0
-217 213 211 0
-217 -213 -211 0
218 -216 213 0
218 -216 206 0
-218 216 213 0
-218 216 206 0
218 -216 205 -217 0
218 -216 -205 217 0
-218 216 205 -217 0
-218 216 -205 217 0
218 216 -213 205 217 -206 0
218 216 -213 -205 -217 -206 0
-218 -216 -213 205 217 -206 0
-218 -216 -213 -205 -217 -206 0
220 213 -205 0
220 -213 205 0
-220 213 205 0
-220 -213 -205 0
219 217 -206 0
219 -217 206 0
-219 217 206 0
-219 -217 -206 0
221 -218 220 0
221 -218 204 0
-221 218 220 0
-221 218 204 0
221 -218 203 -206 0
221 -218 -203 206 0
-221 218 203 -206 0
-221 218 -203 206 0
221 218 -220 203 206 -204 0
221 218 -220 -203 -206 -204 0
-221 -218 -220 203 206 -204 0
-221 -218 -220 -203 -206 -204 0
223 220 -203 0
223 -220 203 0
-223 220 203 0
-223 -220 -203 0
222 206 -204 0
222 -206 204 0
-222 206 204 0
-222 -206 -204 0
224 -221 223 0
224 -221 202 0
-224 221 223 0
-224 221 202 0
224 -221 201 -204 0
224 -221 -201 204 0
-224 221 201 -204 0
-224 221 -201 204 0
224 221 -223 201 204 -202 0
224 221 -223 -201 -204 -202 0
-224 -221 -223 201 204 -202 0
-224 -221 -223 -201 -204 -202 0
226 223 -201 0
226 -223 201 0
-226 223 201 0
-226 -223 -201 0
225 204 -202 0
225 -204 202 0
-225 204 202 0
-225 -204 -202 0
227 -224 226 0
227 -224 200 0
-227 224 226 0
-227 224 200 0
227 -224 199 -202 0
227 -224 -199 202 0
-227 224 199 -202 0
-227 224 -199 202 0
227 224 -226 199 202 -200 0
227 224 -226 -199 -202 -200 0
-227 -224 -226 199 202 -200 0
-227 -224 -226 -199 -202 -200 0
229 226 -199 0
229 -226 199 0
-229 226 199 0
-229 -226 -199 0
228 202 -200 0
228 -202 200 0
-228 202 200 0
-228 -202 -200 0
230 -227 229 0
230 -227 198 0
-230 227 229 0
-230 227 198 0
230 -227 197 -200 0
230 -227 -197 200 0
-230 227 197 -200 0
-230 227 -197 200 0
230 227 -229 197 200 -198 0
230 227 -229 -197 -200 -198 0
-230 -227 -229 197 200 -198 0
-230 -227 -229 -197 -200 -198 0
232 229 -197 0
232 -229 197 0
-232 229 197 0
-232 -229 -197 0
231 200 -198 0
231 -200 198 0
-231 200 198 0
-231 -200 -198 0
233 -230 232 0
233 -230 196 0
-233 230 232 0
-233 230 196 0
233 -230 195 -198 0
233 -230 -195 198 0
-233 230 195 -198 0
-233 230 -195 198 0
233 230 -232 195 198 -196 0
233 230 -232 -195 -198 -196 0
-233 -230 -232 195 198 -196 0
-233 -230 -232 -195 -198 -196 0
235 232 -195 0
235 -232 195 0
-235 232 195 0
-235 -232 -195 0
234 198 -196 0
234 -198 196 0
-234 198 196 0
-234 -198 -196 0
236 -233 235 0
236 -233 194 0
-236 233 235 0
-236 233 194 0
236 -233 193 -196 0
236 -233 -193 196 0
-236 233 193 -196 0
-236 233 -193 196 0
236 233 -235 193 196 -194 0
236 233 -235 -193 -196 -194 0
-236 -233 -235 193 196 -194 0
-236 -233 -235 -193 -196 -194 0
238 235 -193 0
238 -235 193 0
-238 235 193 0
-238 -235 -193 0
237 196 -194 0
237 -196 194 0
-237 196 194 0
-237 -196 -194 0
239 -236 238 0
239 -236 192 0
-239 236 238 0
-239 236 192 0
239 -236 191 -194 0
239 -236 -191 194 0
-239 236 191 -194 0
-239 236 -191 194 0
239 236 -238 191 194 -192 0
239 236 -238 -191 -194 -192 0
-239 -236 -238 191 194 -192 0
-239 -236 -238 -191 -194 -192 0
241 238 -191 0
241 -238 191 0
-241 238 191 0
-241 -238 -191 0
240 194 -192 0
240 -194 192 0
-240 194 192 0
-240 -194 -192 0
242 -239 241 0
242 -239 190 0
-242 239 241 0
-242 239 190 0
242 -239 189 -192 0
242 -239 -189 192 0
-242 239 189 -192 0
-242 239 -189 192 0
242 239 -241 189 192 -190 0
242 239 -241 -189 -192 -190 0
-242 -239 -241 189 192 -190 0
-242 -239 -241 -189 -192 -190 0
244 241 -189 0
244 -241 189 0
-244 241 189 0
-244 -241 -189 0
243 192 -190 0
243 -192 190 0
-243 192 190 0
-243 -192 -190 0
245 -242 244 0
245 -242 188 0
-245 242 244 0
-245 242 188 0
245 -242 187 -190 0
245 -242 -187 190 0
-245 242 187 -190 0
-245 242 -187 190 0
245 242 -244 187 190 -188 0
245 242 -244 -187 -190 -188 0
-245 -242 -244 187 190 -188 0
-245 -242 -244 -187 -190 -188 0
247 244 -187 0
247 -244 187 0
-247 244 187 0
-247 -244 -187 0
246 190 -188 0
246 -190 188 0
-246 190 188 0
-246 -190 -188 0
248 -245 247 0
248 -245 186 0
-248 245 247 0
-248 245 186 0
248 -245 185 -188 0
248 -245 -185 188 0
-248 245 185 -188 0
-248 245 -185 188 0
248 245 -247 185 188 -186 0
248 245 -247 -185 -188 -186 0
-248 -245 -247 185 188 -186 0
-248 -245 -247 -185 -188 -186 0
250 247 -185 0
250 -247 185 0
-250 247 185 0
-250 -247 -185 0
249 188 -186 0
249 -188 186 0
-249 188 186 0
-249 -188 -186 0
251 -248 250 0
251 -248 184 0
-251 248 250 0
-251 248 184 0
251 -248 183 -186 0
251 -248 -183 186 0
-251 248 183 -186 0
-251 248 -183 186 0
251 248 -250 183 186 -184 0
251 248 -250 -183 -186 -184 0
-251 -248 -250 183 186 -184 0
-251 -248 -250 -183 -186 -184 0
253 250 -183 0
253 -250 183 0
-253 250 183 0
-253 -250 -183 0
252 186 -184 0
252 -186 184 0
-252 186 184 0
-252 -186 -184 0
254 -251 253 0
254 -251 182 0
-254 251 253 0
-254 251 182 0
254 -251 181 -184 0
254 -251 -181 184 0
-254 251 181 -184 0
-254 251 -181 184 0
254 251 -253 181 184 -182 0
254 251 -253 -181 -184 -182 0
-254 -251 -253 181 184 -182 0
-254 -251 -253 -181 -184 -182 0
256 253 -181 0
256 -253 181 0
-256 253 181 0
-256 -253 -181 0
255 184 -182 0
255 -184 182 0
-255 184 182 0
-255 -184 -182 0
257 -254 256 0
257 -254 180 0
-257 254 256 0
-257 254 180 0
257 -254 179 -182 0
257 -254 -179 182 0
-257 254 179 -182 0
-257 254 -179 182 0
257 254 -256 179 182 -180 0
257 254 -256 -179 -182 -180 0
-257 -254 -256 179 182 -180 0
-257 -254 -256 -179 -182 -180 0
259 256 -179 0
259 -256 179 0
-259 256 179 0
-259 -256 -179 0
258 182 -180 0
258 -182 180 0
-258 182 180 0
-258 -182 -180 0
260 -257 259 0
260 -257 178 0
-260 257 259 0
-260 257 178 0
260 -257 177 -180 0
260 -257 -177 180 0
-260 257 177 -180 0
-260 257 -177 180 0
260 257 -259 177 180 -178 0
260 257 -259 -177 -180 -178 0
-260 -257 -259 177 180 -178 0
-260 -257 -259 -177 -180 -178 0
262 259 -177 0
262 -259 177 0
-262 259 177 0
-262 -259 -177 0
261 180 -178 0
261 -180 178 0
-261 180 178 0
-261 -180 -178 0
263 -260 262 0
263 -260 176 0
-263 260 262 0
-263 260 176 0
263 -260 175 -178 0
263 -260 -175 178 0
-263 260 175 -178 0
-263 260 -175 178 0
263 260 -262 175 178 -176 0
263 260 -262 -175 -178 -176 0
-263 -260 -262 175 178 -176 0
-263 -260 -262 -175 -178 -176 0
265 262 -175 0
265 -262 175 0
-265 262 175 0
-265 -262 -175 0
264 178 -176 0
264 -178 176 0
-264 178 176 0
-264 -178 -176 0
266 -263 265 0
266 -263 174 0
-266 263 265 0
-266 263 174 0
266 -263 173 -176 0
266 -263 -173 176 0
-266 263 173 -176 0
-266 263 -173 176 0
266 263 -265 173 176 -174 0
266 263 -265 -173 -176 -174 0
-266 -263 -265 173 176 -174 0
-266 -263 -265 -173 -176 -174 0
268 265 -173 0
268 -265 173 0
-268 265 173 0
-268 -265 -173 0
267 176 -174 0
267 -176 174 0
-267 176 174 0
-267 -176 -174 0
269 -266 268 0
269 -266 172 0
-269 266 268 0
-269 266 172 0
269 -266 171 -174 0
269 -266 -171 174 0
-269 266 171 -174 0
-269 266 -171 174 0
269 266 -268 171 174 -172 0
269 266 -268 -171 -174 -172 0
-269 -266 -268 171 174 -172 0
-269 -266 -268 -171 -174 -172 0
271 268 -171 0
271 -268 171 0
-271 268 171 0
-271 -268 -171 0
270 174 -172 0
270 -174 172 0
-270 174 172 0
-270 -174 -172 0
272 -269 271 0
272 -269 170 0
-272 269 271 0
-272 269 170 0
272 -269 169 -172 0
272 -269 -169 172 0
-272 269 169 -172 0
-272 269 -169 172 0
272 269 -271 169 172 -170 0
272 269 -271 -169 -172 -170 0
-272 -269 -271 169 172 -170 0
-272 -269 -271 -169 -172 -170 0
274 271 -169 0
274 -271 169 0
-274 271 169 0
-274 -271 -169 0
273 172 -170 0
273 -172 170 0
-273 172 170 0
-273 -172 -170 0
275 -272 274 0
275 -272 168 0
-275 272 274 0
-275 272 168 0
275 -272 167 -170 0
275 -272 -167 170 0
-275 272 167 -170 0
-275 272 -167 170 0
275 272 -274 167 170 -168 0
275 272 -274 -167 -170 -168 0
-275 -272 -274 167 170 -168 0
-275 -272 -274 -167 -170 -168 0
277 274 -167 0
277 -274 167 0
-277 274 167 0
-277 -274 -167 0
276 170 -168 0
276 -170 168 0
-276 170 168 0
-276 -170 -168 0
278 -275 277 0
278 -275 166 0
-278 275 277 0
-278 275 166 0
278 -275 165 -168 0
278 -275 -165 168 0
-278 275 165 -168 0
-278 275 -165 168 0
278 275 -277 165 168 -166 0
278 275 -277 -165 -168 -166 0
-278 -275 -277 165 168 -166 0
-278 -275 -277 -165 -168 -166 0
280 277 -165 0
280 -277 165 0
-280 277 165 0
-280 -277 -165 0
279 168 -166 0
279 -168 166 0
-279 168 166 0
-279 -168 -166 0
281 -278 280 0
281 -278 164 0
-281 278 280 0
-281 278 164 0
281 -278 163 -166 0
281 -278 -163 166 0
-281 278 163 -166 0
-281 278 -163 166 0
281 278 -280 163 166 -164 0
281 278 -280 -163 -166 -164 0
-281 -278 -280 163 166 -164 0
-281 -278 -280 -163 -166 -164 0
283 280 -163 0
283 -280 163 0
-283 280 163 0
-283 -280 -163 0
282 166 -164 0
282 -166 164 0
-282 166 164 0
-282 -166 -164 0
284 -281 283 0
284 -281 162 0
-284 281 283 0
-284 281 162 0
284 -281 161 -164 0
284 -281 -161 164 0
-284 281 161 -164 0
-284 281 -161 164 0
284 281 -283 161 164 -162 0
284 281 -283 -161 -164 -162 0
-284 -281 -283 161 164 -162 0
-284 -281 -283 -161 -164 -162 0
286 283 -161 0
286 -283 161 0
-286 283 161 0
-286 -283 -161 0
285 164 -162 0
285 -164 162 0
-285 164 162 0
-285 -164 -162 0
287 -284 286 0
287 -284 160 0
-287 284 286 0
-287 284 160 0
287 -284 159 -162 0
287 -284 -159 162 0
-287 284 159 -162 0
-287 284 -159 162 0
287 284 -286 159 162 -160 0
287 284 -286 -159 -162 -160 0
-287 -284 -286 159 162 -160 0
-287 -284 -286 -159 -162 -160 0
289 286 -159 0
289 -286 159 0
-289 286 159 0
-289 -286 -159 0
288 162 -160 0
288 -162 160 0
-288 162 160 0
-288 -162 -160 0
290 -287 289 0
290 -287 158 0
-290 287 289 0
-290 287 158 0
290 -287 157 -160 0
290 -287 -157 160 0
-290 287 157 -160 0
-290 287 -157 160 0
290 287 -289 157 160 -158 0
290 287 -289 -157 -160 -158 0
-290 -287 -289 157 160 -158 0
-290 -287 -289 -157 -160 -158 0
292 289 -157 0
292 -289 157 0
-292 289 157 0
-292 -289 -157 0
291 160 -158 0
291 -160 158 0
-291 160 158 0
-291 -160 -158 0
293 -290 292 0
293 -290 156 0
-293 290 292 0
-293 290 156 0
293 -290 155 -158 0
293 -290 -155 158 0
-293 290 155 -158 0
-293 290 -155 158 0
293 290 -292 155 158 -156 0
293 290 -292 -155 -158 -156 0
-293 -290 -292 155 158 -156 0
-293 -290 -292 -155 -158 -156 0
295 292 -155 0
295 -292 155 0
-295 292 155 0
-295 -292 -155 0
294 158 -156 0
294 -158 156 0
-294 158 156 0
-294 -158 -156 0
296 -293 295 0
296 -293 154 0
-296 293 295 0
-296 293 154 0
296 -293 153 -156 0
296 -293 -153 156 0
-296 293 153 -156 0
-296 293 -153 156 0
296 293 -295 153 156 -154 0
296 293 -295 -153 -156 -154 0
-296 -293 -295 153 156 -154 0
-296 -293 -295 -153 -156 -154 0
298 295 -153 0
298 -295 153 0
-298 295 153 0
-298 -295 -153 0
297 156 -154 0
297 -156 154 0
-297 156 154 0
-297 -156 -154 0
299 -296 298 0
299 -296 152 0
-299 296 298 0
-299 296 152 0
299 -296 151 -154 0
299 -296 -151 154 0
-299 296 151 -154 0
-299 296 -151 154 0
299 296 -298 151 154 -152 0
299 296 -298 -151 -154 -152 0
-299 -296 -298 151 154 -152 0
-299 -296 -298 -151 -154 -152 0
301 298 -151 0
301 -298 151 0
-301 298 151 0
-301 -298 -151 0
300 154 -152 0
300 -154 152 0
-300 154 152 0
-300 -154 -152 0
302 -299 301 0
302 -299 150 0
-302 299 301 0
-302 299 150 0
302 -299 149 -152 0
302 -299 -149 152 0
-302 299 149 -152 0
-302 299 -149 152 0
302 299 -301 149 152 -150 0
302 299 -301 -149 -152 -150 0
-302 -299 -301 149 152 -150 0
-302 -299 -301 -149 -152 -150 0
304 301 -149 0
304 -301 149 0
-304 301 149 0
-304 -301 -149 0
303 152 -150 0
303 -152 150 0
-303 152 150 0
-303 -152 -150 0
305 -302 304 0
305 -302 148 0
-305 302 304 0
-305 302 148 0
305 -302 147 -150 0
305 -302 -147 150 0
-305 302 147 -150 0
-305 302 -147 150 0
305 302 -304 147 150 -148 0
305 302 -304 -147 -150 -148 0
-305 -302 -304 147 150 -148 0
-305 -302 -304 -147 -150 -148 0
307 304 -147 0
307 -304 147 0
-307 304 147 0
-307 -304 -147 0
306 150 -148 0
306 -150 148 0
-306 150 148 0
-306 -150 -148 0
308 -305 307 0
308 -305 146 0
-308 305 307 0
-308 305 146 0
308 -305 145 -148 0
308 -305 -145 148 0
-308 305 145 -148 0
-308 305 -145 148 0
308 305 -307 145 148 -146 0
308 305 -307 -145 -148 -146 0
-308 -305 -307 145 148 -146 0
-308 -305 -307 -145 -148 -146 0
310 307 -145 0
310 -307 145 0
-310 307 145 0
-310 -307 -145 0
309 148 -146 0
309 -148 146 0
-309 148 146 0
-309 -148 -146 0
311 -308 310 0
311 -308 144 0
-311 308 310 0
-311 308 144 0
311 -308 143 -146 0
311 -308 -143 146 0
-311 308 143 -146 0
-311 308 -143 146 0
311 308 -310 143 146 -144 0
311 308 -310 -143 -146 -144 0
-311 -308 -310 143 146 -144 0
-311 -308 -310 -143 -146 -144 0
313 310 -143 0
313 -310 143 0
-313 310 143 0
-313 -310 -143 0
312 146 -144 0
312 -146 144 0
-312 146 144 0
-312 -146 -144 0
314 -311 313 0
314 -311 142 0
-314 311 313 0
-314 311 142 0
314 -311 141 -144 0
314 -311 -141 144 0
-314 311 141 -144 0
-314 311 -141 144 0
314 311 -313 141 144 -142 0
314 311 -313 -141 -144 -142 0
-314 -311 -313 141 144 -142 0
-314 -311 -313 -141 -144 -142 0
316 313 -141 0
316 -313 141 0
-316 313 141 0
-316 -313 -141 0
315 144 -142 0
315 -144 142 0
-315 144 142 0
-315 -144 -142 0
317 -314 316 0
317 -314 140 0
-317 314 316 0
-317 314 140 0
317 -314 139 -142 0
317 -314 -139 142 0
-317 314 139 -142 0
-317 314 -139 142 0
317 314 -316 139 142 -140 0
317 314 -316 -139 -142 -140 0
-317 -314 -316 139 142 -140 0
-317 -314 -316 -139 -142 -140 0
319 316 -139 0
319 -316 139 0
-319 316 139 0
-319 -316 -139 0
318 142 -140 0
318 -142 140 0
-318 142 140 0
-318 -142 -140 0
320 -317 319 0
320 -317 138 0
-320 317 319 0
-320 317 138 0
320 -317 137 -140 0
320 -317 -137 140 0
-320 317 137 -140 0
-320 317 -137 140 0
320 317 -319 137 140 -138 0
320 317 -319 -137 -140 -138 0
-320 -317 -319 137 140 -138 0
-320 -317 -319 -137 -140 -138 0
322 319 -137 0
322 -319 137 0
-322 319 137 0
-322 -319 -137 0
321 140 -138 0
321 -140 138 0
-321 140 138 0
-321 -140 -138 0
323 -320 322 0
323 -320 136 0
-323 320 322 0
-323 320 136 0
323 -320 135 -138 0
323 -320 -135 138 0
-323 320 135 -138 0
-323 320 -135 138 0
323 320 -322 135 138 -136 0
323 320 -322 -135 -138 -136 0
-323 -320 -322 135 138 -136 0
-323 -320 -322 -135 -138 -136 0
325 322 -135 0
325 -322 135 0
-325 322 135 0
-325 -322 -135 0
324 138 -136 0
324 -138 136 0
-324 138 136 0
-324 -138 -136 0
326 -323 325 0
326 -323 134 0
-326 323 325 0
-326 323 134 0
326 -323 133 -136 0
326 -323 -133 136 0
-326 323 133 -136 0
-326 323 -133 136 0
326 323 -325 133 136 -134 0
326 323 -325 -133 -136 -134 0
-326 -323 -325 133 136 -134 0
-326 -323 -325 -133 -136 -134 0
328 325 -133 0
328 -325 133 0
-328 325 133 0
-328 -325 -133 0
327 136 -134 0
327 -136 134 0
-327 136 134 0
-327 -136 -134 0
329 -326 328 0
329 -326 132 0
-329 326 328 0
-329 326 132 0
329 -326 131 -134 0
329 -326 -131 134 0
-329 326 131 -134 0
-329 326 -131 134 0
329 326 -328 131 134 -132 0
329 326 -328 -131 -134 -132 0
-329 -326 -328 131 134 -132 0
-329 -326 -328 -131 -134 -132 0
331 328 -131 0
331 -328 131 0
-331 328 131 0
-331 -328 -131 0
330 134 -132 0
330 -134 132 0
-330 134 132 0
-330 -134 -132 0
332 -329 331 0
332 -329 130 0
-332 329 331 0
-332 329 130 0
332 -329 129 -132 0
332 -329 -129 132 0
-332 329 129 -132 0
-332 329 -129 132 0
332 329 -331 129 132 -130 0
332 329 -331 -129 -132 -130 0
-332 -329 -331 129 132 -130 0
-332 -329 -331 -129 -132 -130 0
334 331 -129 0
334 -331 129 0
-334 331 129 0
-334 -331 -129 0
333 132 -130 0
333 -132 130 0
-333 132 130 0
-333 -132 -130 0
335 -332 334 0
335 -332 128 0
-335 332 334 0
-335 332 128 0
335 -332 127 -130 0
335 -332 -127 130 0
-335 332 127 -130 0
-335 332 -127 130 0
335 332 -334 127 130 -128 0
335 332 -334 -127 -130 -128 0
-335 -332 -334 127 130 -128 0
-335 -332 -334 -127 -130 -128 0
337 334 -127 0
337 -334 127 0
-337 334 127 0
-337 -334 -127 0
336 130 -128 0
336 -130 128 0
-336 130 128 0
-336 -130 -128 0
338 -335 337 0
338 -335 126 0
-338 335 337 0
-338 335 126 0
338 -335 125 -128 0
338 -335 -125 128 0
-338 335 125 -128 0
-338 335 -125 128 0
338 335 -337 125 128 -126 0
338 335 -337 -125 -128 -126 0
-338 -335 -337 125 128 -126 0
-338 -335 -337 -125 -128 -126 0
340 337 -125 0
340 -337 125 0
-340 337 125 0
-340 -337 -125 0
339 128 -126 0
339 -128 126 0
-339 128 126 0
-339 -128 -126 0
341 -338 340 0
341 -338 124 0
-341 338 340 0
-341 338 124 0
341 -338 123 -126 0
341 -338 -123 126 0
-341 338 123 -126 0
-341 338 -123 126 0
341 338 -340 123 126 -124 0
341 338 -340 -123 -126 -124 0
-341 -338 -340 123 126 -124 0
-341 -338 -340 -123 -126 -124 0
343 340 -123 0
343 -340 123 0
-343 340 123 0
-343 -340 -123 0
342 126 -124 0
342 -126 124 0
-342 126 124 0
-342 -126 -124 0
344 -341 343 0
344 -341 122 0
-344 341 343 0
-344 341 122 0
344 -341 121 -124 0
344 -341 -121 124 0
-344 341 121 -124 0
-344 341 -121 124 0
344 341 -343 121 124 -122 0
344 341 -343 -121 -124 -122 0
-344 -341 -343 121 124 -122 0
-344 -341 -343 -121 -124 -122 0
346 343 -121 0
346 -343 121 0
-346 343 121 0
-346 -343 -121 0
345 124 -122 0
345 -124 122 0
-345 124 122 0
-345 -124 -122 0
347 -344 346 0
347 -344 120 0
-347 344 346 0
-347 344 120 0
347 -344 119 -122 0
347 -344 -119 122 0
-347 344 119 -122 0
-347 344 -119 122 0
347 344 -346 119 122 -120 0
347 344 -346 -119 -122 -120 0
-347 -344 -346 119 122 -120 0
-347 -344 -346 -119 -122 -120 0
349 346 -119 0
349 -346 119 0
-349 346 119 0
-349 -346 -119 0
348 122 -120 0
348 -122 120 0
-348 122 120 0
-348 -122 -120 0
350 -347 349 0
350 -347 118 0
-350 347 349 0
-350 347 118 0
350 -347 117 -120 0
350 -347 -117 120 0
-350 347 117 -120 0
-350 347 -117 120 0
350 347 -349 117 120 -118 0
350 347 -349 -117 -120 -118 0
-350 -347 -349 117 120 -118 0
-350 -347 -349 -117 -120 -118 0
352 349 -117 0
352 -349 117 0
-352 349 117 0
-352 -349 -117 0
351 120 -118 0
351 -120 118 0
-351 120 118 0
-351 -120 -118 0
353 -350 352 0
353 -350 116 0
-353 350 352 0
-353 350 116 0
353 -350 115 -118 0
353 -350 -115 118 0
-353 350 115 -118 0
-353 350 -115 118 0
353 350 -352 115 118 -116 0
353 350 -352 -115 -118 -116 0
-353 -350 -352 115 118 -116 0
-353 -350 -352 -115 -118 -116 0
355 352 -115 0
355 -352 115 0
-355 352 115 0
-355 -352 -115 0
354 118 -116 0
354 -118 116 0
-354 118 116 0
-354 -118 -116 0
356 -353 355 0
356 -353 114 0
-356 353 355 0
-356 353 114 0
356 -353 113 -116 0
356 -353 -113 116 0
-356 353 113 -116 0
-356 353 -113 116 0
356 353 -355 113 116 -114 0
356 353 -355 -113 -116 -114 0
-356 -353 -355 113 116 -114 0
-356 -353 -355 -113 -116 -114 0
358 355 -113 0
358 -355 113 0
-358 355 113 0
-358 -355 -113 0
357 116 -114 0
357 -116 114 0
-357 116 114 0
-357 -116 -114 0
359 -356 358 0
359 -356 112 0
-359 356 358 0
-359 356 112 0
359 -356 111 -114 0
359 -356 -111 114 0
-359 356 111 -114 0
-359 356 -111 114 0
359 356 -358 111 114 -112 0
359 356 -358 -111 -114 -112 0
-359 -356 -358 111 114 -112 0
-359 -356 -358 -111 -114 -112 0
361 358 -111 0
361 -358 111 0
-361 358 111 0
-361 -358 -111 0
360 114 -112 0
360 -114 112 0
-360 114 112 0
-360 -114 -112 0
362 -359 361 0
362 -359 110 0
-362 359 361 0
-362 359 110 0
362 -359 109 -112 0
362 -359 -109 112 0
-362 359 109 -112 0
-362 359 -109 112 0
362 359 -361 109 112 -110 0
362 359 -361 -109 -112 -110 0
-362 -359 -361 109 112 -110 0
-362 -359 -361 -109 -112 -110 0
364 361 -109 0
364 -361 109 0
-364 361 109 0
-364 -361 -109 0
363 112 -110 0
363 -112 110 0
-363 112 110 0
-363 -112 -110 0
365 -362 364 0
365 -362 108 0
-365 362 364 0
-365 362 108 0
365 -362 107 -110 0
365 -362 -107 110 0
-365 362 107 -110 0
-365 362 -107 110 0
365 362 -364 107 110 -108 0
365 362 -364 -107 -110 -108 0
-365 -362 -364 107 110 -108 0
-365 -362 -364 -107 -110 -108 0
367 364 -107 0
367 -364 107 0
-367 364 107 0
-367 -364 -107 0
366 110 -108 0
366 -110 108 0
-366 110 108 0
-366 -110 -108 0
368 -365 367 0
368 -365 106 0
-368 365 367 0
-368 365 106 0
368 -365 105 -108 0
368 -365 -105 108 0
-368 365 105 -108 0
-368 365 -105 108 0
368 365 -367 105 108 -106 0
368 365 -367 -105 -108 -106 0
-368 -365 -367 105 108 -106 0
-368 -365 -367 -105 -108 -106 0
370 367 -105 0
370 -367 105 0
-370 367 105 0
-370 -367 -105 0
369 108 -106 0
369 -108 106 0
-369 108 106 0
-369 -108 -106 0
371 -368 370 0
371 -368 104 0
-371 368 370 0
-371 368 104 0
371 -368 103 -106 0
371 -368 -103 106 0
-371 368 103 -106 0
-371 368 -103 106 0
371 368 -370 103 106 -104 0
371 368 -370 -103 -106 -104 0
-371 -368 -370 103 106 -104 0
-371 -368 -370 -103 -106 -104 0
373 370 -103 0
373 -370 103 0
-373 370 103 0
-373 -370 -103 0
372 106 -104 0
372 -106 104 0
-372 106 104 0
-372 -106 -104 0
374 -371 373 0
374 -371 102 0
-374 371 373 0
-374 371 102 0
374 -371 101 -104 0
374 -371 -101 104 0
-374 371 101 -104 0
-374 371 -101 104 0
374 371 -373 101 104 -102 0
374 371 -373 -101 -104 -102 0
-374 -371 -373 101 104 -102 0
-374 -371 -373 -101 -104 -102 0
376 373 -101 0
376 -373 101 0
-376 373 101 0
-376 -373 -101 0
375 104 -102 0
375 -104 102 0
-375 104 102 0
-375 -104 -102 0
377 -374 376 0
377 -374 100 0
-377 374 376 0
-377 374 100 0
377 -374 99 -102 0
377 -374 -99 102 0
-377 374 99 -102 0
-377 374 -99 102 0
377 374 -376 99 102 -100 0
377 374 -376 -99 -102 -100 0
-377 -374 -376 99 102 -100 0
-377 -374 -376 -99 -102 -100 0
379 376 -99 0
379 -376 99 0
-379 376 99 0
-379 -376 -99 0
378 102 -100 0
378 -102 100 0
-378 102 100 0
-378 -102 -100 0
380 -377 379 0
380 -377 98 0
-380 377 379 0
-380 377 98 0
380 -377 97 -100 0
380 -377 -97 100 0
-380 377 97 -100 0
-380 377 -97 100 0
380 377 -379 97 100 -98 0
380 377 -379 -97 -100 -98 0
-380 -377 -379 97 100 -98 0
-380 -377 -379 -97 -100 -98 0
382 379 -97 0
382 -379 97 0
-382 379 97 0
-382 -379 -97 0
381 100 -98 0
381 -100 98 0
-381 100 98 0
-381 -100 -98 0
383 -380 382 0
383 -380 96 0
-383 380 382 0
-383 380 96 0
383 -380 95 -98 0
383 -380 -95 98 0
-383 380 95 -98 0
-383 380 -95 98 0
383 380 -382 95 98 -96 0
383 380 -382 -95 -98 -96 0
-383 -380 -382 95 98 -96 0
-383 -380 -382 -95 -98 -96 0
385 382 -95 0
385 -382 95 0
-385 382 95 0
-385 -382 -95 0
384 98 -96 0
384 -98 96 0
-384 98 96 0
-384 -98 -96 0
386 -383 385 0
386 -383 94 0
-386 383 385 0
-386 383 94 0
386 -383 93 -96 0
386 -383 -93 96 0
-386 383 93 -96 0
-386 383 -93 96 0
386 383 -385 93 96 -94 0
386 383 -385 -93 -96 -94 0
-386 -383 -385 93 96 -94 0
-386 -383 -385 -93 -96 -94 0
388 385 -93 0
388 -385 93 0
-388 385 93 0
-388 -385 -93 0
387 96 -94 0
387 -96 94 0
-387 96 94 0
-387 -96 -94 0
389 -386 388 0
389 -386 92 0
-389 386 388 0
-389 386 92 0
389 -386 91 -94 0
389 -386 -91 94 0
-389 386 91 -94 0
-389 386 -91 94 0
389 386 -388 91 94 -92 0
389 386 -388 -91 -94 -92 0
-389 -386 -388 91 94 -92 0
-389 -386 -388 -91 -94 -92 0
391 388 -91 0
391 -388 91 0
-391 388 91 0
-391 -388 -91 0
390 94 -92 0
390 -94 92 0
-390 94 92 0
-390 -94 -92 0
392 -389 391 0
392 -389 90 0
-392 389 391 0
-392 389 90 0
392 -389 89 -92 0
392 -389 -89 92 0
-392 389 89 -92 0
-392 389 -89 92 0
392 389 -391 89 92 -90 0
392 389 -391 -89 -92 -90 0
-392 -389 -391 89 92 -90 0
-392 -389 -391 -89 -92 -90 0
394 391 -89 0
394 -391 89 0
-394 391 89 0
-394 -391 -89 0
393 92 -90 0
393 -92 90 0
-393 92 90 0
-393 -92 -90 0
395 -392 394 0
395 -392 88 0
-395 392 394 0
-395 392 88 0
395 -392 87 -90 0
395 -392 -87 90 0
-395 392 87 -90 0
-395 392 -87 90 0
395 392 -394 87 90 -88 0
395 392 -394 -87 -90 -88 0
-395 -392 -394 87 90 -88 0
-395 -392 -394 -87 -90 -88 0
397 394 -87 0
397 -394 87 0
-397 394 87 0
-397 -394 -87 0
396 90 -88 0
396 -90 88 0
-396 90 88 0
-396 -90 -88 0
398 -395 397 0
398 -395 86 0
-398 395 397 0
-398 395 86 0
398 -395 85 -88 0
398 -395 -85 88 0
-398 395 85 -88 0
-398 395 -85 88 0
398 395 -397 85 88 -86 0
398 395 -397 -85 -88 -86 0
-398 -395 -397 85 88 -86 0
-398 -395 -397 -85 -88 -86 0
400 397 -85 0
400 -397 85 0
-400 397 85 0
-400 -397 -85 0
399 88 -86 0
399 -88 86 0
-399 88 86 0
-399 -88 -86 0
401 -398 400 0
401 -398 84 0
-401 398 400 0
-401 398 84 0
401 -398 83 -86 0
401 -398 -83 86 0
-401 398 83 -86 0
-401 398 -83 86 0
401 398 -400 83 86 -84 0
401 398 -400 -83 -86 -84 0
-401 -398 -400 83 86 -84 0
-401 -398 -400 -83 -86 -84 0
403 400 -83 0
403 -400 83 0
-403 400 83 0
-403 -400 -83 0
402 86 -84 0
402 -86 84 0
-402 86 84 0
-402 -86 -84 0
404 -401 403 0
404 -401 82 0
-404 401 403 0
-404 401 82 0
404 -401 81 -84 0
404 -401 -81 84 0
-404 401 81 -84 0
-404 401 -81 84 0
404 401 -403 81 84 -82 0
404 401 -403 -81 -84 -82 0
-404 -401 -403 81 84 -82 0
-404 -401 -403 -81 -84 -82 0
406 403 -81 0
406 -403 81 0
-406 403 81 0
-406 -403 -81 0
405 84 -82 0
405 -84 82 0
-405 84 82 0
-405 -84 -82 0
407 -404 406 0
407 -404 80 0
-407 404 406 0
-407 404 80 0
407 -404 79 -82 0
407 -404 -79 82 0
-407 404 79 -82 0
-407 404 -79 82 0
407 404 -406 79 82 -80 0
407 404 -406 -79 -82 -80 0
-407 -404 -406 79 82 -80 0
-407 -404 -406 -79 -82 -80 0
409 406 -79 0
409 -406 79 0
-409 406 79 0
-409 -406 -79 0
408 82 -80 0
408 -82 80 0
-408 82 80 0
-408 -82 -80 0
410 -407 409 0
410 -407 78 0
-410 407 409 0
-410 407 78 0
410 -407 77 -80 0
410 -407 -77 80 0
-410 407 77 -80 0
-410 407 -77 80 0
410 407 -409 77 80 -78 0
410 407 -409 -77 -80 -78 0
-410 -407 -409 77 80 -78 0
-410 -407 -409 -77 -80 -78 0
412 409 -77 0
412 -409 77 0
-412 409 77 0
-412 -409 -77 0
411 80 -78 0
411 -80 78 0
-411 80 78 0
-411 -80 -78 0
413 -410 412 0
413 -410 76 0
-413 410 412 0
-413 410 76 0
413 -410 75 -78 0
413 -410 -75 78 0
-413 410 75 -78 0
-413 410 -75 78 0
413 410 -412 75 78 -76 0
413 410 -412 -75 -78 -76 0
-413 -410 -412 75 78 -76 0
-413 -410 -412 -75 -78 -76 0
415 412 -75 0
415 -412 75 0
-415 412 75 0
-415 -412 -75 0
414 78 -76 0
414 -78 76 0
-414 78 76 0
-414 -78 -76 0
416 -413 415 0
416 -413 74 0
-416 413 415 0
-416 413 74 0
416 -413 73 -76 0
416 -413 -73 76 0
-416 413 73 -76 0
-416 413 -73 76 0
416 413 -415 73 76 -74 0
416 413 -415 -73 -76 -74 0
-416 -413 -415 73 76 -74 0
-416 -413 -415 -73 -76 -74 0
418 415 -73 0
418 -415 73 0
-418 415 73 0
-418 -415 -73 0
417 76 -74 0
417 -76 74 0
-417 76 74 0
-417 -76 -74 0
419 -416 418 0
419 -416 72 0
-419 416 418 0
-419 416 72 0
419 -416 71 -74 0
419 -416 -71 74 0
-419 416 71 -74 0
-419 416 -71 74 0
419 416 -418 71 74 -72 0
419 416 -418 -71 -74 -72 0
-419 -416 -418 71 74 -72 0
-419 -416 -418 -71 -74 -72 0
421 418 -71 0
421 -418 71 0
-421 418 71 0
-421 -418 -71 0
420 74 -72 0
420 -74 72 0
-420 74 72 0
-420 -74 -72 0
422 -419 421 0
422 -419 70 0
-422 419 421 0
-422 419 70 0
422 -419 69 -72 0
422 -419 -69 72 0
-422 419 69 -72 0
-422 419 -69 72 0
422 419 -421 69 72 -70 0
422 419 -421 -69 -72 -70 0
-422 -419 -421 69 72 -70 0
-422 -419 -421 -69 -72 -70 0
424 421 -69 0
424 -421 69 0
-424 421 69 0
-424 -421 -69 0
423 72 -70 0
423 -72 70 0
-423 72 70 0
-423 -72 -70 0
425 -422 424 0
425 -422 68 0
-425 422 424 0
-425 422 68 0
425 -422 67 -70 0
425 -422 -67 70 0
-425 422 67 -70 0
-425 422 -67 70 0
425 422 -424 67 70 -68 0
425 422 -424 -67 -70 -68 0
-425 -422 -424 67 70 -68 0
-425 -422 -424 -67 -70 -68 0
427 424 -67 0
427 -424 67 0
-427 424 67 0
-427 -424 -67 0
426 70 -68 0
426 -70 68 0
-426 70 68 0
-426 -70 -68 0
428 -425 427 0
428 -425 66 0
-428 425 427 0
-428 425 66 0
428 -425 65 -68 0
428 -425 -65 68 0
-428 425 65 -68 0
-428 425 -65 68 0
428 425 -427 65 68 -66 0
428 425 -427 -65 -68 -66 0
-428 -425 -427 65 68 -66 0
-428 -425 -427 -65 -68 -66 0
430 427 -65 0
430 -427 65 0
-430 427 65 0
-430 -427 -65 0
429 68 -66 0
429 -68 66 0
-429 68 66 0
-429 -68 -66 0
431 -428 430 0
431 -428 64 0
-431 428 430 0
-431 428 64 0
431 -428 63 -66 0
431 -428 -63 66 0
-431 428 63 -66 0
-431 428 -63 66 0
431 428 -430 63 66 -64 0
431 428 -430 -63 -66 -64 0
-431 -428 -430 63 66 -64 0
-431 -428 -430 -63 -66 -64 0
433 430 -63 0
433 -430 63 0
-433 430 63 0
-433 -430 -63 0
432 66 -64 0
432 -66 64 0
-432 66 64 0
-432 -66 -64 0
434 -431 433 0
434 -431 62 0
-434 431 433 0
-434 431 62 0
434 -431 61 -64 0
434 -431 -61 64 0
-434 431 61 -64 0
-434 431 -61 64 0
434 431 -433 61 64 -62 0
434 431 -433 -61 -64 -62 0
-434 -431 -433 61 64 -62 0
-434 -431 -433 -61 -64 -62 0
436 433 -61 0
436 -433 61 0
-436 433 61 0
-436 -433 -61 0
435 64 -62 0
435 -64 62 0
-435 64 62 0
-435 -64 -62 0
437 -434 436 0
437 -434 60 0
-437 434 436 0
-437 434 60 0
437 -434 59 -62 0
437 -434 -59 62 0
-437 434 59 -62 0
-437 434 -59 62 0
437 434 -436 59 62 -60 0
437 434 -436 -59 -62 -60 0
-437 -434 -436 59 62 -60 0
-437 -434 -436 -59 -62 -60 0
439 436 -59 0
439 -436 59 0
-439 436 59 0
-439 -436 -59 0
438 62 -60 0
438 -62 60 0
-438 62 60 0
-438 -62 -60 0
440 -437 439 0
440 -437 58 0
-440 437 439 0
-440 437 58 0
440 -437 57 -60 0
440 -437 -57 60 0
-440 437 57 -60 0
-440 437 -57 60 0
440 437 -439 57 60 -58 0
440 437 -439 -57 -60 -58 0
-440 -437 -439 57 60 -58 0
-440 -437 -439 -57 -60 -58 0
442 439 -57 0
442 -439 57 0
-442 439 57 0
-442 -439 -57 0
441 60 -58 0
441 -60 58 0
-441 60 58 0
-441 -60 -58 0
443 -440 442 0
443 -440 56 0
-443 440 442 0
-443 440 56 0
443 -440 55 -58 0
443 -440 -55 58 0
-443 440 55 -58 0
-443 440 -55 58 0
443 440 -442 55 58 -56 0
443 440 -442 -55 -58 -56 0
-443 -440 -442 55 58 -56 0
-443 -440 -442 -55 -58 -56 0
445 442 -55 0
445 -442 55 0
-445 442 55 0
-445 -442 -55 0
444 58 -56 0
444 -58 56 0
-444 58 56 0
-444 -58 -56 0
446 -443 445 0
446 -443 54 0
-446 443 445 0
-446 443 54 0
446 -443 53 -56 0
446 -443 -53 56 0
-446 443 53 -56 0
-446 443 -53 56 0
446 443 -445 53 56 -54 0
446 443 -445 -53 -56 -54 0
-446 -443 -445 53 56 -54 0
-446 -443 -445 -53 -56 -54 0
448 445 -53 0
448 -445 53 0
-448 445 53 0
-448 -445 -53 0
447 56 -54 0
447 -56 54 0
-447 56 54 0
-447 -56 -54 0
449 -446 448 0
449 -446 52 0
-449 446 448 0
-449 446 52 0
449 -446 51 -54 0
449 -446 -51 54 0
-449 446 51 -54 0
-449 446 -51 54 0
449 446 -448 51 54 -52 0
449 446 -448 -51 -54 -52 0
-449 -446 -448 51 54 -52 0
-449 -446 -448 -51 -54 -52 0
451 448 -51 0
451 -448 51 0
-451 448 51 0
-451 -448 -51 0
450 54 -52 0
450 -54 52 0
-450 54 52 0
-450 -54 -52 0
452 -449 451 0
452 -449 50 0
-452 449 451 0
-452 449 50 0
452 -449 49 -52 0
452 -449 -49 52 0
-452 449 49 -52 0
-452 449 -49 52 0
452 449 -451 49 52 -50 0
452 449 -451 -49 -52 -50 0
-452 -449 -451 49 52 -50 0
-452 -449 -451 -49 -52 -50 0
454 451 -49 0
454 -451 49 0
-454 451 49 0
-454 -451 -49 0
453 52 -50 0
453 -52 50 0
-453 52 50 0
-453 -52 -50 0
455 -452 454 0
455 -452 48 0
-455 452 454 0
-455 452 48 0
455 -452 47 -50 0
455 -452 -47 50 0
-455 452 47 -50 0
-455 452 -47 50 0
455 452 -454 47 50 -48 0
455 452 -454 -47 -50 -48 0
-455 -452 -454 47 50 -48 0
-455 -452 -454 -47 -50 -48 0
457 454 -47 0
457 -454 47 0
-457 454 47 0
-457 -454 -47 0
456 50 -48 0
456 -50 48 0
-456 50 48 0
-456 -50 -48 0
458 -455 457 0
458 -455 46 0
-458 455 457 0
-458 455 46 0
458 -455 45 -48 0
458 -455 -45 48 0
-458 455 45 -48 0
-458 455 -45 48 0
458 455 -457 45 48 -46 0
458 455 -457 -45 -48 -46 0
-458 -455 -457 45 48 -46 0
-458 -455 -457 -45 -48 -46 0
460 457 -45 0
460 -457 45 0
-460 457 45 0
-460 -457 -45 0
459 48 -46 0
459 -48 46 0
-459 48 46 0
-459 -48 -46 0
461 -458 460 0
461 -458 44 0
-461 458 460 0
-461 458 44 0
461 -458 43 -46 0
461 -458 -43 46 0
-461 458 43 -46 0
-461 458 -43 46 0
461 458 -460 43 46 -44 0
461 458 -460 -43 -46 -44 0
-461 -458 -460 43 46 -44 0
-461 -458 -460 -43 -46 -44 0
463 460 -43 0
463 -460 43 0
-463 460 43 0
-463 -460 -43 0
462 46 -44 0
462 -46 44 0
-462 46 44 0
-462 -46 -44 0
464 -461 463 0
464 -461 42 0
-464 461 463 0
-464 461 42 0
464 -461 41 -44 0
464 -461 -41 44 0
-464 461 41 -44 0
-464 461 -41 44 0
464 461 -463 41 44 -42 0
464 461 -463 -41 -44 -42 0
-464 -461 -463 41 44 -42 0
-464 -461 -463 -41 -44 -42 0
466 463 -41 0
466 -463 41 0
-466 463 41 0
-466 -463 -41 0
465 44 -42 0
465 -44 42 0
-465 44 42 0
-465 -44 -42 0
467 -464 466 0
467 -464 40 0
-467 464 466 0
-467 464 40 0
467 -464 39 -42 0
467 -464 -39 42 0
-467 464 39 -42 0
-467 464 -39 42 0
467 464 -466 39 42 -40 0
467 464 -466 -39 -42 -40 0
-467 -464 -466 39 42 -40 0
-467 -464 -466 -39 -42 -40 0
469 466 -39 0
469 -466 39 0
-469 466 39 0
-469 -466 -39 0
468 42 -40 0
468 -42 40 0
-468 42 40 0
-468 -42 -40 0
470 -467 469 0
470 -467 38 0
-470 467 469 0
-470 467 38 0
470 -467 37 -40 0
470 -467 -37 40 0
-470 467 37 -40 0
-470 467 -37 40 0
470 467 -469 37 40 -38 0
470 467 -469 -37 -40 -38 0
-470 -467 -469 37 40 -38 0
-470 -467 -469 -37 -40 -38 0
472 469 -37 0
472 -469 37 0
-472 469 37 0
-472 -469 -37 0
471 40 -38 0
471 -40 38 0
-471 40 38 0
-471 -40 -38 0
473 -470 472 0
473 -470 36 0
-473 470 472 0
-473 470 36 0
473 -470 35 -38 0
473 -470 -35 38 0
-473 470 35 -38 0
-473 470 -35 38 0
473 470 -472 35 38 -36 0
473 470 -472 -35 -38 -36 0
-473 -470 -472 35 38 -36 0
-473 -470 -472 -35 -38 -36 0
475 472 -35 0
475 -472 35 0
-475 472 35 0
-475 -472 -35 0
474 38 -36 0
474 -38 36 0
-474 38 36 0
-474 -38 -36 0
476 -473 475 0
476 -473 34 0
-476 473 475 0
-476 473 34 0
476 -473 33 -36 0
476 -473 -33 36 0
-476 473 33 -36 0
-476 473 -33 36 0
476 473 -475 33 36 -34 0
476 473 -475 -33 -36 -34 0
-476 -473 -475 33 36 -34 0
-476 -473 -475 -33 -36 -34 0
478 475 -33 0
478 -475 33 0
-478 475 33 0
-478 -475 -33 0
477 36 -34 0
477 -36 34 0
-477 36 34 0
-477 -36 -34 0
479 -476 478 0
479 -476 32 0
-479 476 478 0
-479 476 32 0
479 -476 31 -34 0
479 -476 -31 34 0
-479 476 31 -34 0
-479 476 -31 34 0
479 476 -478 31 34 -32 0
479 476 -478 -31 -34 -32 0
-479 -476 -478 31 34 -32 0
-479 -476 -478 -31 -34 -32 0
481 478 -31 0
481 -478 31 0
-481 478 31 0
-481 -478 -31 0
480 34 -32 0
480 -34 32 0
-480 34 32 0
-480 -34 -32 0
482 -479 481 0
482 -479 30 0
-482 479 481 0
-482 479 30 0
482 -479 29 -32 0
482 -479 -29 32 0
-482 479 29 -32 0
-482 479 -29 32 0
482 479 -481 29 32 -30 0
482 479 -481 -29 -32 -30 0
-482 -479 -481 29 32 -30 0
-482 -479 -481 -29 -32 -30 0
484 481 -29 0
484 -481 29 0
-484 481 29 0
-484 -481 -29 0
483 32 -30 0
483 -32 30 0
-483 32 30 0
-483 -32 -30 0
485 -482 484 0
485 -482 28 0
-485 482 484 0
-485 482 28 0
485 -482 27 -30 0
485 -482 -27 30 0
-485 482 27 -30 0
-485 482 -27 30 0
485 482 -484 27 30 -28 0
485 482 -484 -27 -30 -28 0
-485 -482 -484 27 30 -28 0
-485 -482 -484 -27 -30 -28 0
487 484 -27 0
487 -484 27 0
-487 484 27 0
-487 -484 -27 0
486 30 -28 0
486 -30 28 0
-486 30 28 0
-486 -30 -28 0
488 -485 487 0
488 -485 26 0
-488 485 487 0
-488 485 26 0
488 -485 25 -28 0
488 -485 -25 28 0
-488 485 25 -28 0
-488 485 -25 28 0
488 485 -487 25 28 -26 0
488 485 -487 -25 -28 -26 0
-488 -485 -487 25 28 -26 0
-488 -485 -487 -25 -28 -26 0
490 487 -25 0
490 -487 25 0
-490 487 25 0
-490 -487 -25 0
489 28 -26 0
489 -28 26 0
-489 28 26 0
-489 -28 -26 0
491 -488 490 0
491 -488 24 0
-491 488 490 0
-491 488 24 0
491 -488 23 -26 0
491 -488 -23 26 0
-491 488 23 -26 0
-491 488 -23 26 0
491 488 -490 23 26 -24 0
491 488 -490 -23 -26 -24 0
-491 -488 -490 23 26 -24 0
-491 -488 -490 -23 -26 -24 0
493 490 -23 0
493 -490 23 0
-493 490 23 0
-493 -490 -23 0
492 26 -24 0
492 -26 24 0
-492 26 24 0
-492 -26 -24 0
494 -491 493 0
494 -491 22 0
-494 491 493 0
-494 491 22 0
494 -491 21 -24 0
494 -491 -21 24 0
-494 491 21 -24 0
-494 491 -21 24 0
494 491 -493 21 24 -22 0
494 491 -493 -21 -24 -22 0
-494 -491 -493 21 24 -22 0
-494 -491 -493 -21 -24 -22 0
496 493 -21 0
496 -493 21 0
-496 493 21 0
-496 -493 -21 0
495 24 -22 0
495 -24 22 0
-495 24 22 0
-495 -24 -22 0
497 -494 496 0
497 -494 20 0
-497 494 496 0
-497 494 20 0
497 -494 19 -22 0
497 -494 -19 22 0
-497 494 19 -22 0
-497 494 -19 22 0
497 494 -496 19 22 -20 0
497 494 -496 -19 -22 -20 0
-497 -494 -496 19 22 -20 0
-497 -494 -496 -19 -22 -20 0
499 496 -19 0
499 -496 19 0
-499 496 19 0
-499 -496 -19 0
498 22 -20 0
498 -22 20 0
-498 22 20 0
-498 -22 -20 0
500 -497 499 0
500 -497 18 0
-500 497 499 0
-500 497 18 0
500 -497 17 -20 0
500 -497 -17 20 0
-500 497 17 -20 0
-500 497 -17 20 0
500 497 -499 17 20 -18 0
500 497 -499 -17 -20 -18 0
-500 -497 -499 17 20 -18 0
-500 -497 -499 -17 -20 -18 0
502 499 -17 0
502 -499 17 0
-502 499 17 0
-502 -499 -17 0
501 20 -18 0
501 -20 18 0
-501 20 18 0
-501 -20 -18 0
503 -500 502 0
503 -500 16 0
-503 500 502 0
-503 500 16 0
503 -500 15 -18 0
503 -500 -15 18 0
-503 500 15 -18 0
-503 500 -15 18 0
503 500 -502 15 18 -16 0
503 500 -502 -15 -18 -16 0
-503 -500 -502 15 18 -16 0
-503 -500 -502 -15 -18 -16 0
505 502 -15 0
505 -502 15 0
-505 502 15 0
-505 -502 -15 0
504 18 -16 0
504 -18 16 0
-504 18 16 0
-504 -18 -16 0
506 -503 505 0
506 -503 14 0
-506 503 505 0
-506 503 14 0
506 -503 13 -16 0
506 -503 -13 16 0
-506 503 13 -16 0
-506 503 -13 16 0
506 503 -505 13 16 -14 0
506 503 -505 -13 -16 -14 0
-506 -503 -505 13 16 -14 0
-506 -503 -505 -13 -16 -14 0
508 505 -13 0
508 -505 13 0
-508 505 13 0
-508 -505 -13 0
507 16 -14 0
507 -16 14 0
-507 16 14 0
-507 -16 -14 0
509 -506 508 0
509 -506 12 0
-509 506 508 0
-509 506 12 0
509 -506 11 -14 0
509 -506 -11 14 0
-509 506 11 -14 0
-509 506 -11 14 0
509 506 -508 11 14 -12 0
509 506 -508 -11 -14 -12 0
-509 -506 -508 11 14 -12 0
-509 -506 -508 -11 -14 -12 0
511 508 -11 0
511 -508 11 0
-511 508 11 0
-511 -508 -11 0
510 14 -12 0
510 -14 12 0
-510 14 12 0
-510 -14 -12 0
512 -509 511 0
512 -509 10 0
-512 509 511 0
-512 509 10 0
512 -509 9 -12 0
512 -509 -9 12 0
-512 509 9 -12 0
-512 509 -9 12 0
512 509 -511 9 12 -10 0
512 509 -511 -9 -12 -10 0
-512 -509 -511 9 12 -10 0
-512 -509 -511 -9 -12 -10 0
514 511 -9 0
514 -511 9 0
-514 511 9 0
-514 -511 -9 0
513 12 -10 0
513 -12 10 0
-513 12 10 0
-513 -12 -10 0
515 -512 514 0
515 -512 8 0
-515 512 514 0
-515 512 8 0
515 -512 7 -10 0
515 -512 -7 10 0
-515 512 7 -10 0
-515 512 -7 10 0
515 512 -514 7 10 -8 0
515 512 -514 -7 -10 -8 0
-515 -512 -514 7 10 -8 0
-515 -512 -514 -7 -10 -8 0
517 514 -7 0
517 -514 7 0
-517 514 7 0
-517 -514 -7 0
516 10 -8 0
516 -10 8 0
-516 10 8 0
-516 -10 -8 0
518 -515 517 0
518 -515 6 0
-518 515 517 0
-518 515 6 0
518 -515 5 -8 0
518 -515 -5 8 0
-518 515 5 -8 0
-518 515 -5 8 0
518 515 -517 5 8 -6 0
518 515 -517 -5 -8 -6 0
-518 -515 -517 5 8 -6 0
-518 -515 -517 -5 -8 -6 0
520 517 -5 0
520 -517 5 0
-520 517 5 0
-520 -517 -5 0
519 8 -6 0
519 -8 6 0
-519 8 6 0
-519 -8 -6 0
521 -518 520 0
521 -518 4 0
-521 518 520 0
-521 518 4 0
521 -518 3 -6 0
521 -518 -3 6 0
-521 518 3 -6 0
-521 518 -3 6 0
521 518 -520 3 6 -4 0
521 518 -520 -3 -6 -4 0
-521 -518 -520 3 6 -4 0
-521 -518 -520 -3 -6 -4 0
523 520 -3 0
523 -520 3 0
-523 520 3 0
-523 -520 -3 0
522 6 -4 0
522 -6 4 0
-522 6 4 0
-522 -6 -4 0
524 -521 523 0
524 -521 2 0
-524 521 523 0
-524 521 2 0
524 -521 1 -4 0
524 -521 -1 4 0
-524 521 1 -4 0
-524 521 -1 4 0
524 521 -523 1 4 -2 0
524 521 -523 -1 -4 -2 0
-524 -521 -523 1 4 -2 0
-524 -521 -523 -1 -4 -2 0
526 523 -1 0
526 -523 1 0
-526 523 1 0
-526 -523 -1 0
525 4 -2 0
525 -4 2 0
-525 4 2 0
-525 -4 -2 0
